\ENCODING=ISO-8859-1
\Problem name: Initial

Minimize
 obj: 30 x1 + 34 x2 + 68 x3 + 69 x4 + 25 x5 + 36 x6 + 27 x7 + 86 x8 + 69 x9
      + 64 x10 + 68 x11 + 25 x12 + 44 x13 + 21 x14 + 34 x15 + 13 x16 + 42 x17
      + 19 x18 + 39 x19 + 76 x20 + 24 x21 + 52 x22 + 34 x23 + 30 x24 + 50 x25
      + 168 x26 + 96 x27 + 104 x28 + 110 x29 + 30 x30 + 93 x31 + 30 x32
      + 152 x33 + 69 x34 + 100 x35 + 35 x36 + 63 x37 + 88 x38 + 195 x39
      + 84 x40 + 1000 x41 + 1000 x42 + 1000 x43 + 1000 x44 + 1000 x45
      + 1000 x46 + 1000 x47 + 1000 x48 + 1000 x49 + 1000 x50 + 1000 x51
      + 1000 x52 + 1000 x53 + 114 x54 + 90 x55 + 72 x56 + 87 x57 + 43 x58
      + 88 x59 + 88 x60 + 39 x61 + 29 x62 + 36 x63 + 52 x64 + 94 x65 + 54 x66
      + 39 x67 + 52 x68 + 224 x69 + 156 x70 + 125 x71 + 66 x72 + 102 x73
      + 160 x74 + 140 x75 + 78 x76 + 100 x77 + 325 x78 + 84 x79 + 120 x80
      + 74 x81 + 180 x82 + 159 x83 + 34 x84 + 27 x85 + 102 x86 + 40 x87
      + 53 x88 + 94 x89 + 100 x90 + 76 x91 + 112 x92 + 84 x93 + 80 x94
      + 180 x95 + 244 x96 + 150 x97 + 30 x98 + 117 x99 + 150 x100 + 69 x101
      + 88 x102 + 210 x103 + 171 x104 + 128 x105 + 68 x106 + 132 x107 + 34 x108
      + 27 x109 + 86 x110 + 34 x111 + 88 x112 + 86 x113 + 106 x114 + 84 x115
      + 30 x116 + 104 x117 + 184 x118 + 96 x119 + 110 x120 + 30 x121 + 93 x122
      + 34 x123 + 160 x124 + 235 x125 + 329 x126 + 84 x127 + 100 x128
      + 215 x129 + 84 x130 + 30 x131 + 34 x132 + 152 x133 + 69 x134 + 34 x135
      + 27 x136 + 88 x137 + 44 x138 + 21 x139 + 102 x140 + 52 x141 + 76 x142
      + 120 x143 + 30 x144 + 76 x145 + 188 x146 + 104 x147 + 115 x148 + 30 x149
      + 96 x150 + 38 x151 + 140 x152 + 35 x153 + 63 x154 + 88 x155 + 280 x156
      + 30 x157 + 34 x158 + 172 x159 + 87 x160 + 34 x161 + 27 x162 + 98 x163
      + 34 x164 + 21 x165 + 34 x166 + 42 x167 + 76 x168 + 52 x169 + 30 x170
      + 184 x171 + 104 x172 + 140 x173 + 30 x174 + 111 x175 + 160 x176
      + 35 x177 + 69 x178 + 215 x179 + 30 x180 + 34 x181 + 68 x182 + 87 x183
      + 34 x184 + 27 x185 + 86 x186 + 21 x187 + 34 x188 + 42 x189 + 76 x190
      + 52 x191 + 30 x192 + 184 x193 + 96 x194 + 104 x195 + 110 x196 + 30 x197
      + 93 x198 + 160 x199 + 35 x200 + 69 x201 + 100 x202 + 215 x203 + 84 x204
Subject To
 c1:   x1 + x54 + x80 + x104 + x131 + x157 + x180  = 1
 c2:   x2 + x55 + x81 + x105 + x132 + x158 + x181  = 1
 c3:   x3 + x56 + x82 + x106 + x133 + x159 + x182  = 1
 c4:   x4 + x57 + x83 + x107 + x134 + x160 + x183  = 1
 c5:   x5 + x84 + x108 + x135 + x161 + x184  = 1
 c6:   x6  = 1
 c7:   x7 + x58 + x85 + x109 + x136 + x162 + x185  = 1
 c8:   x8 + x59 + x86 + x110 + x137 + x163 + x186  = 1
 c9:   x9  = 1
 c10:  x10  = 1
 c11:  x11 + x60  = 1
 c12:  x12 + x61 + x87 + x111 + x138 + x164  = 1
 c13:  x13  = 1
 c14:  x14 + x62 + x88 + x139 + x165 + x187  = 1
 c15:  x15 + x63 + x89 + x112 + x140 + x166 + x188  = 1
 c16:  x16  = 1
 c17:  x17 + x64 + x90 + x141 + x167 + x189  = 1
 c18:  x18  = 1
 c19:  x19  = 1
 c20:  x20 + x65 + x91 + x113 + x142 + x168 + x190  = 1
 c21:  x21  = 1
 c22:  x22 + x66 + x92 + x114 + x143 + x169 + x191  = 1
 c23:  x23 + x93 + x115  = 1
 c24:  x24 + x67 + x116 + x144 + x170 + x192  = 1
 c25:  x25 + x68 + x94 + x117 + x145  = 1
 c26:  x26 + x69 + x95 + x118 + x146 + x171 + x193  = 1
 c27:  x27 + x119 + x194  = 1
 c28:  x28 + x70 + x96 + x147 + x172 + x195  = 1
 c29:  x29 + x71 + x97 + x120 + x148 + x173 + x196  = 1
 c30:  x30 + x72 + x98 + x121 + x149 + x174 + x197  = 1
 c31:  x31 + x73 + x99 + x122 + x150 + x175 + x198  = 1
 c32:  x32 + x123 + x151  = 1
 c33:  x33 + x74 + x124 + x176 + x199  = 1
 c34:  x34  = 1
 c35:  x35 + x75 + x100 + x125 + x152  = 1
 c36:  x36 + x126 + x153 + x177 + x200  = 1
 c37:  x37 + x76 + x101 + x127 + x154 + x178 + x201  = 1
 c38:  x38 + x77 + x102 + x128 + x155 + x202  = 1
 c39:  x39 + x78 + x103 + x129 + x156 + x179 + x203  = 1
 c40:  x40 + x79 + x130 + x204  = 1
 c41:  x5 + 2 x8 + x58 + 2 x59 + 5 x75 + 2 x89 + 2 x92 + 2 x94 + 5 x100
       + 2 x112 + 2 x114 + 2 x117 + 5 x125 + 2 x140 + 2 x143 + 2 x145 + 5 x152
       - x205  = 0
 c42:  2 x2 + 2 x20 + 2 x55 + 2 x65 + 4 x69 + 5 x78 + 2 x105 + 2 x113 + 4 x118
       + 5 x129 + 2 x132 + 2 x158 + 4 x171 + 5 x179 + 2 x181 + 4 x193 + 5 x203
       - x206  = 0
 c43:  - x207  = 0
 c44:  3 x4 + 3 x83 + x84 + x88 + 2 x90 + 4 x96 + x108 + 3 x134 + x135 + x161
       + x184 - x208  = 0
 c45:  2 x6 - x209  = 0
 c46:  3 x1 + 2 x2 + 3 x4 + x12 + 2 x20 - x41 + 3 x131 + 2 x132 + 3 x134
       + 3 x157 + 2 x158 + 3 x180 + 2 x181 - x210  = 0
 c47:  3 x54 + 2 x55 + 3 x57 + 3 x80 + 2 x81 + 4 x82 + 3 x83 + 3 x104 + 2 x105
       + 3 x107 + 4 x133 + 4 x159 + 3 x160 + 3 x183 - x211  = 0
 c48:  4 x3 + 2 x8 - x42 + 4 x106 + 4 x182 - x212  = 0
 c49:  x5 + 4 x56 + x58 + 2 x59 - x213  = 0
 c50:  2 x8 + x58 + 2 x59 + x138 + 2 x140 + 2 x143 + 2 x151 - x214  = 0
 c51:  x7 + x85 + 2 x86 + x109 + 2 x110 + x136 + 2 x137 + x162 + 2 x163 + x185
       + 2 x186 - x215  = 0
 c52:  2 x32 + 3 x80 + 3 x83 + x87 + x88 + 2 x89 + 2 x90 + 2 x92 + 2 x94
       + 4 x96 + 5 x100 - x216  = 0
 c53:  4 x26 + 5 x39 - x43 + 2 x81 + 2 x91 + 4 x95 + 5 x103 + x138 + 2 x140
       + 2 x142 + 2 x143 + 4 x146 + 2 x151 + 5 x156 + 2 x168 + 2 x190 - x217
        = 0
 c54:  3 x57 + x62 + 2 x64 + 4 x70 + 5 x71 + 2 x72 + 3 x73 + 2 x123 + 2 x141
       + 3 x160 + 3 x183 - x218  = 0
 c55:  x7 + 2 x30 + x85 + 2 x86 + 5 x97 + 2 x98 + 3 x99 + x109 + 2 x121 + x136
       + 2 x137 + 5 x148 + 2 x149 + 3 x150 + x162 + 2 x163 + 5 x173 + 2 x174
       + 3 x175 + x185 + 2 x197 - x219  = 0
 c56:  5 x29 + 3 x31 - x44 + 2 x110 + 5 x120 + 3 x122 + 2 x186 + 5 x196
       + 3 x198 - x220  = 0
 c57:  3 x104 + 2 x105 + x111 + 2 x112 + 2 x113 + 2 x114 + 2 x117 + 4 x118
       + 2 x123 + 5 x125 + 5 x129 + x164 + 4 x171 + 5 x179 + 4 x193 + 5 x203
       - x221  = 0
 c58:  4 x26 + 5 x39 - x45 - x222  = 0
 c59:  4 x33 + 3 x34 + 5 x71 + 2 x72 + 3 x73 + 4 x74 + x84 + x108 + 4 x124
       + x135 + x161 + 4 x176 + x184 + 4 x199 - x223  = 0
 c60:  3 x54 + 2 x55 + x61 + 2 x65 + 4 x69 + 5 x75 + 5 x78 + 2 x145 + 5 x152
       - x224  = 0
 c61:  5 x35 - x46 - x225  = 0
 c62:  7 x36 + 3 x57 + 3 x80 + 2 x81 + 3 x83 + 2 x94 + 4 x95 + 4 x96 + 5 x100
       + 5 x103 + 7 x153 + 3 x160 + 7 x177 + 3 x183 + 7 x200 - x226  = 0
 c63:  4 x82 + 2 x86 + 5 x97 + 3 x99 + 7 x126 + 3 x127 - x227  = 0
 c64:  3 x76 + 3 x101 + 3 x104 + 2 x105 + 3 x107 + 5 x125 + 4 x159 + 2 x163
       + 5 x173 + 3 x175 + 3 x178 + 3 x201 - x228  = 0
 c65:  x7 + 2 x30 + 3 x37 - x47 + x85 + 2 x93 + 2 x98 + x109 + 2 x115 + 2 x121
       + 4 x133 + x136 + 2 x137 + 5 x148 + 2 x149 + 3 x150 + 3 x154 + x162
       + 2 x174 + x185 + 2 x197 - x229  = 0
 c66:  2 x15 + 2 x20 + 2 x22 + 2 x25 - x48 + 2 x166 + 2 x169 + 2 x188 + 2 x191
       - x230  = 0
 c67:  x62 + 2 x64 + 4 x70 + x87 + x88 + 2 x89 + 2 x90 + 2 x91 + 2 x92 + 7 x126
       + x138 + 2 x140 + 2 x141 + 2 x142 + 2 x143 + 4 x146 + 5 x156 + 2 x168
       + 2 x190 - x231  = 0
 c68:  - x232  = 0
 c69:  3 x37 + 2 x63 + 2 x66 + 3 x67 + 2 x68 + 3 x76 + 4 x77 + 3 x127 + 4 x128
       + 3 x154 + 4 x202 - x233  = 0
 c70:  3 x27 + 4 x60 + 4 x74 + 3 x119 + 4 x124 + 4 x176 + 3 x194 + 4 x199
       - x234  = 0
 c71:  2 x17 + x18 + 2 x93 + 2 x112 + 2 x114 + 2 x115 + 2 x117 + 2 x167
       + 2 x189 - x235  = 0
 c72:  3 x9 - x236  = 0
 c73:  2 x8 + 3 x19 + 3 x31 + 3 x40 + 2 x59 + 3 x73 + 3 x79 + 2 x86 + 3 x99
       + 2 x110 + 3 x122 + 3 x130 + 2 x137 + 3 x150 + 2 x163 + 3 x175 + 2 x186
       + 3 x198 + 3 x204 - x237  = 0
 c74:  2 x10 + x16 - x238  = 0
 c75:  2 x23 + x58 + x61 + 2 x65 + 4 x69 + 2 x72 + 5 x78 - x239  = 0
 c76:  x12 + 2 x63 + 2 x66 + 2 x68 - x240  = 0
 c77:  4 x56 + x58 + 2 x59 + 4 x60 + x61 + x62 + x87 + x88 + x138 - x241  = 0
 c78:  4 x11 + 4 x33 - x49 - x242  = 0
 c79:  2 x13 + x14 + x111 + x139 + x164 + x165 + x187 - x243  = 0
 c80:  3 x9 + 2 x10 - x244  = 0
 c81:  - x245  = 0
 c82:  x14 + 2 x17 + 4 x26 + 4 x28 + 5 x39 - x50 + 3 x104 + 2 x105 + 3 x107
       + x111 + 2 x112 + 2 x113 + 2 x114 + 2 x117 + 4 x118 + 5 x125 + 5 x129
       + x139 + 4 x147 + x164 + x165 + 2 x167 + 4 x171 + 4 x172 + 5 x179 + x187
       + 2 x189 + 4 x193 + 4 x195 + 5 x203 - x246  = 0
 c83:  2 x93 + 4 x95 + 4 x96 + 5 x103 + 2 x115 - x247  = 0
 c84:  3 x40 + 3 x67 + 5 x71 + 2 x72 + 3 x73 + 4 x74 + 3 x76 + 4 x124 + 5 x156
       + 4 x159 + 2 x163 + 5 x173 + 3 x175 + 4 x176 + 4 x199 - x248  = 0
 c85:  3 x24 + 4 x33 + 4 x38 - x51 + x84 + 3 x101 + 4 x102 + x108 + 3 x116
       + x135 + 3 x144 + 4 x155 + x161 + 3 x170 + 3 x178 + x184 + 3 x192
       + 3 x201 - x249  = 0
 c86:  3 x34 - x250  = 0
 c87:  2 x13 + x21 - x251  = 0
 c88:  x18 - x252  = 0
 c89:  3 x19 + 2 x20 + 2 x65 + 2 x91 + 2 x142 + 2 x168 + 2 x190 - x253  = 0
 c90:  x21 + 2 x113 - x254  = 0
 c91:  2 x22 + 2 x23 + 2 x66 + 2 x92 + 2 x93 + 2 x114 + 2 x115 + 2 x143
       + 2 x169 + 2 x191 - x255  = 0
 c92:  3 x27 + 4 x69 + 4 x70 + 4 x77 + 5 x78 + 3 x79 + 3 x119 + 4 x128 + 3 x130
       + 4 x146 + 3 x194 + 4 x202 + 3 x204 - x256  = 0
 c93:  4 x26 + 4 x28 + 4 x95 + 4 x96 + 4 x118 + 4 x147 + 4 x171 + 4 x172
       + 4 x193 + 4 x195 - x257  = 0
 c94:  x61 + 2 x65 + 4 x69 + 5 x78 + 2 x94 + 2 x145 - x258  = 0
 c95:  2 x25 + 3 x37 + 2 x68 + 2 x117 + 4 x133 + 2 x137 + 5 x148 + 3 x150
       + 3 x154 - x259  = 0
 c96:  4 x38 + 5 x39 - x52 + 5 x129 + 4 x155 + 5 x156 + 5 x179 + 5 x203 - x260
        = 0
 c97:  4 x77 + 5 x78 + 4 x102 + 5 x103 + 4 x128 + 4 x202 - x261  = 0
 c98:  4 x26 + 4 x28 + 3 x40 - x53 + 4 x95 + 4 x96 + 4 x102 + 5 x103 + 4 x118
       + 4 x147 + 4 x171 + 4 x172 + 4 x193 + 4 x195 - x262  = 0
 c99:  4 x77 + 5 x78 + 3 x79 + 4 x128 + 3 x130 + 4 x202 + 3 x204 - x263  = 0
 c100: - x264  = 0
Bounds
 0 <= x205 <= 5
 0 <= x206 <= 5
 0 <= x207 <= 2
 0 <= x208 <= 3
 0 <= x209 <= 4
 0 <= x210 <= 5
 0 <= x211 <= 4
 0 <= x212 <= 2
 0 <= x213 <= 2
 0 <= x214 <= 5
 0 <= x215 <= 8
 0 <= x216 <= 2
 0 <= x217 <= 8
 0 <= x218 <= 5
 0 <= x219 <= 10
 0 <= x220 <= 5
 0 <= x221 <= 3
 0 <= x222 <= 5
 0 <= x223 <= 14
 0 <= x224 <= 4
 0 <= x225 <= 4
 0 <= x226 <= 10
 0 <= x227 <= 3
 0 <= x228 <= 4
 0 <= x229 <= 5
 0 <= x230 <= 2
 0 <= x231 <= 5
 0 <= x232 <= 3
 0 <= x233 <= 10
 0 <= x234 <= 8
 0 <= x235 <= 5
 0 <= x236 <= 8
 0 <= x237 <= 12
 0 <= x238 <= 10
 0 <= x239 <= 5
 0 <= x240 <= 2
 0 <= x241 <= 10
 0 <= x242 <= 6
 0 <= x243 <= 10
 0 <= x244 <= 8
 0 <= x245 <= 6
 0 <= x246 <= 14
 0 <= x247 <= 4
 0 <= x248 <= 5
 0 <= x249 <= 10
 0 <= x250 <= 5
 0 <= x251 <= 8
 0 <= x252 <= 10
 0 <= x253 <= 8
 0 <= x254 <= 5
 0 <= x255 <= 12
 0 <= x256 <= 10
 0 <= x257 <= 8
 0 <= x258 <= 5
 0 <= x259 <= 5
 0 <= x260 <= 8
 0 <= x261 <= 7
 0 <= x262 <= 10
 0 <= x263 <= 8
 0 <= x264 <= 7
End
